20J6M/DAT/20J6MNNL-11.dat
20 6
27.9932 27.9932
26.046 26.046
29.7749 29.7749
27.1137 27.1137
27.594 27.594
25.7425 25.7425
22.9727 22.9727
27.537 27.537
33.2189 33.2189
14.5347 14.5347
31.166 31.166
28.8446 28.8446
20.6725 20.6725
36.2979 36.2979
33.9065 33.9065
21.8671 21.8671
24.8147 24.8147
18.8425 18.8425
26.8922 26.8922
27.0941 27.0941
532.9257