20J6M/SOL/20J6MNNL-11.sol
solution status: optimal solution found
objective value:                             88.82095
x#1#4                                               1 	(obj:0)
x#2#6                                               1 	(obj:0)
x#3#1                               0.852588925571539 	(obj:0)
x#3#4                               0.147411074428461 	(obj:0)
x#4#5                                               1 	(obj:0)
x#5#4                                               1 	(obj:0)
x#6#6                                               1 	(obj:0)
x#7#3                               0.561716733340008 	(obj:0)
x#7#6                               0.438283266659992 	(obj:0)
x#8#2                                               1 	(obj:0)
x#9#1                                               1 	(obj:0)
x#10#3                                              1 	(obj:0)
x#11#1                              0.679126291471475 	(obj:0)
x#11#5                              0.320873708528525 	(obj:0)
x#12#4                                              1 	(obj:0)
x#13#3                                              1 	(obj:0)
x#14#2                                              1 	(obj:0)
x#15#1                              0.263089673071535 	(obj:0)
x#15#2                              0.736910326928465 	(obj:0)
x#16#3                                              1 	(obj:0)
x#17#5                                              1 	(obj:0)
x#18#3                                              1 	(obj:0)
x#19#5                                              1 	(obj:0)
x#20#1                            0.00480547425454258 	(obj:0)
x#20#6                              0.995194525745457 	(obj:0)
z                                            88.82095 	(obj:1)
